p cnf 14 64
5 -11 14 0
-4 -10 -12 0
-8 -9 -13 0
1 -4 14 0
-3 -6 -10 0
-9 -10 -12 0
2 -8 11 0
4 6 9 0
1 -2 -3 0
-1 -7 9 0
3 -5 11 0
1 -7 -9 0
5 11 14 0
1 8 -12 0
4 5 11 0
3 8 -10 0
-6 -7 8 0
9 10 -13 0
8 11 -12 0
-4 -5 12 0
-4 -7 -11 0
-1 5 6 0
1 -3 -14 0
1 6 7 0
5 -7 14 0
4 8 13 0
1 5 -12 0
-2 -12 -13 0
8 -10 -12 0
10 11 12 0
-4 -7 8 0
8 11 12 0
-1 9 -14 0
-5 7 11 0
-4 -9 -12 0
7 12 -14 0
-1 2 6 0
-1 6 -9 0
-1 4 -5 0
-4 -10 12 0
4 7 8 0
5 13 14 0
2 -10 12 0
5 -9 -11 0
4 6 10 0
3 9 -11 0
1 -9 -12 0
-5 -7 8 0
6 7 9 0
-5 -6 7 0
2 3 5 0
1 -8 -12 0
6 9 13 0
3 -5 8 0
7 11 -13 0
-1 10 12 0
8 -11 -13 0
2 -9 13 0
1 -3 11 0
-2 -6 9 0
-6 -8 -9 0
2 -5 -14 0
2 6 12 0
-3 6 -10 0
